46587.0
1 0 1 1 0 0 1 1 1 0 1 1 1 1 0 0 1 1 1 1 1 1 1 1 1 1 1 1 1 1 
18 19 21 27 2 12 21 27 22 28 29 28 13 13 28 18 3 20 22 0 18 16 23 24 10 18 27 19 29 2 19 19 26 16 27 6 20 8 24 16 18 8 6 26 8 19 13 21 19 20 24 16 24 16 8 6 11 8 18 25 29 0 7 8 13 11 23 17 28 25 18 12 19 8 23 23 20 23 8 16 10 0 26 25 29 13 6 2 27 7 28 6 25 25 2 3 11 6 0 28 28 21 25 18 29 0 29 24 22 3 19 29 27 12 12 8 28 7 17 8 26 11 17 19 26 16 2 11 26 17 28 24 25 20 23 8 3 3 28 10 12 22 11 11 25 2 24 21 27 25 24 17 23 0 8 11 2 16 3 13 13 27 10 24 23 27 23 29 3 21 23 20 19 10 26 2 0 10 29 10 2 21 2 19 12 8 28 23 0 21 2 21 6 29 7 12 7 21 10 19 